Route #1: 1 28 53 2 17 36 49 37 50 4 1
Route #2: 1 33 8 16 38 30 43 7 54 25 48 1
Route #3: 1 26 46 42 40 5 27 1
Route #4: 1 14 34 35 31 55 3 12 56 32 21 44 11 1
Route #5: 1 23 51 39 10 24 13 41 6 52 29 1
Route #6: 1 20 19 15 45 18 9 47 1
Route #7: 1 22 1
cost 837.2621834530672
